Route #1: 28 5 15 9 8 32 18 40 7 37 3 17 11 2 10 35 16 27 43 13 24 29 38 39
Route #2: 30 26 12 14 23 25
Route #3: 20 19
Route #4: 41 31 4
Route #5: 1 6 34 21 22 33 36 42
Route #6: 
cost 959.7104984636555
